# Solution for model SupplyNetworkDesign
# Objective value = 1750
flow[D1,C1road] 0
flow[D1,C2road] 50
flow[D2,C1rail] 30
flow[D2,C1road] 0
flow[D3,C2road] 0
flow[D3,C3road] 0
flow[D3,C3rail] 35
flow[D4,C2rail] 50
flow[D4,C2road] 0
flow[D4,C3rail] 15
flow[D4,C3road] 0
flow[C1rail,X] 30
flow[C2rail,X] 50
flow[C3rail,X] 50
flow[C1road,X] 0
flow[C2road,X] 50
